set S := 'S1' 'S2' 'S3' 'S4'; 
set P := 'P1' 'P2' 'P3' 'P4' 'P5' 'P6' 'P7' 'P8' 'P9' 'P10';
param string:
	P1	P2	P3	P4	P5	P6	P7	P8	P9	P10:=
S1	5	9	15	15	15	18	18	15	15	18
S2	5	9	9	18	18	18	5	15	18	15
S3	5	5	9	15	5	5	9	5	5	15
S4	5	15	15	18	5	9	5	9	5	15;


